&GLOBAL
  PROJECT  MoS2
  PRINT_LEVEL MEDIUM
  RUN_TYPE ENERGY
  &TIMINGS
     THRESHOLD 0.0001
  &END
!  TRACE
!  TRACE_MASTER FALSE
&END GLOBAL
&FORCE_EVAL
  METHOD Quickstep
  &DFT
    BASIS_SET_FILE_NAME  /pc2/groups/hpc-prf-eprop2d/eprop2d1_Jan/02_compile_CP2K/28_small_cell_GW/cp2k/data/BASIS_PERIODIC_GW
    SORT_BASIS EXP
    POTENTIAL_FILE_NAME  /pc2/groups/hpc-prf-eprop2d/eprop2d1_Jan/02_compile_CP2K/28_small_cell_GW/cp2k/data/GTH_SOC_POTENTIALS
    CHARGE 0
    &MGRID
      CUTOFF  500
      REL_CUTOFF  100
    &END MGRID
    &QS
      METHOD GPW
      EPS_DEFAULT 1.0E-8
      EPS_PGF_ORB 1.0E-8
    &END QS
    &SCF
      SCF_GUESS RESTART
      EPS_SCF 1.0E-6
      MAX_SCF 1
      &PRINT
        &RESTART ON
        &END
      &END
      ADDED_MOS -1
      &MIXING
          METHOD BROYDEN_MIXING
          ALPHA 0.0
          BETA 1.5
          NBROYDEN 8
      &END
      IGNORE_CONVERGENCE_FAILURE
    &END SCF
    &XC
      &XC_FUNCTIONAL NONE
      &END XC_FUNCTIONAL
      &HF
        FRACTION 1.0
        &RI
          KP_NGROUPS 16
          !using a smaller than default EPS_PGF_ORB allows for a
          !more accurate calculation with a larger local RI basis
          EPS_PGF_ORB 1.0E-8
        &END RI
        &INTERACTION_POTENTIAL
          !Always use a limited ranged potential in PBCs
          POTENTIAL_TYPE TRUNCATED
          CUTOFF_RADIUS 10.4
        &END INTERACTION_POTENTIAL
      &END HF
    &END XC
    &KPOINTS
      SCHEME MONKHORST-PACK 8 8 1
      PARALLEL_GROUP_SIZE   -1
    &END KPOINTS
    &PRINT
      &BAND_STRUCTURE
        ADDED_MOS 5
        &KPOINT_SET
          NPOINTS 9
          SPECIAL_POINT M     0.333333 0.333333 0.0
          SPECIAL_POINT GAMMA 0.0 0.0 0.0
          SPECIAL_POINT K     0.0 0.5 0.0
        &END  KPOINT_SET
        FILE_NAME graphene_kp.bs
      &END BAND_STRUCTURE
    &END PRINT
  &END DFT
  &SUBSYS
    &CELL
      ABC                 3.15 3.15 15.0
      ALPHA_BETA_GAMMA    90 90 120
        PERIODIC XY
    &END CELL

    &KIND S
      BASIS_SET ORB    TZVP-MOLOPT-GTH_upscaled
      BASIS_SET RI_HFX RI
      POTENTIAL        GTH-PADE-q6
    &END KIND

    &KIND Se
      BASIS_SET ORB    TZVP-MOLOPT-GTH_upscaled
      BASIS_SET RI_HFX RI
      POTENTIAL        GTH-PADE-q6
    &END KIND

    &KIND Mo
      BASIS_SET ORB    TZVP-MOLOPT-GTH_upscaled
      BASIS_SET RI_HFX RI
      POTENTIAL        GTH-PADE-q14
    &END KIND

    &KIND W
      BASIS_SET ORB    TZVP-MOLOPT-GTH_upscaled
      BASIS_SET RI_HFX RI
      POTENTIAL        GTH-PADE-q14
    &END KIND

    &COORD
Mo         0.00000        1.81865        3.07500
S          0.00000        3.63731        1.48830
S          0.00000        3.63731        4.66170
    &END COORD
  &END SUBSYS
&END FORCE_EVAL
